
Gurobi 9.1.1 (linux64, C++) logging started Mon Mar 22 15:27:11 2021

Academic license - for non-commercial use only - expires 2021-05-13

Gurobi 9.1.1 (linux64) logging started Mon Mar 29 16:47:50 2021


Gurobi 9.1.1 (linux64) logging started Mon Mar 29 16:48:32 2021


Gurobi 9.1.1 (linux64) logging started Mon Mar 29 16:51:01 2021


Gurobi 9.1.1 (linux64) logging started Mon Mar 29 16:53:24 2021


Gurobi 9.1.1 (linux64) logging started Mon Mar 29 16:56:06 2021


Gurobi 9.1.1 (linux64) logging started Mon Mar 29 17:00:04 2021


Gurobi 9.1.1 (linux64) logging started Mon Mar 29 17:01:06 2021


Gurobi 9.1.1 (linux64) logging started Mon Mar 29 17:01:52 2021


Gurobi 9.1.1 (linux64) logging started Mon Mar 29 17:03:17 2021


Gurobi 9.1.1 (linux64) logging started Mon Mar 29 17:03:49 2021


Gurobi 9.1.1 (linux64) logging started Mon Mar 29 17:04:09 2021


Gurobi 9.1.1 (linux64) logging started Mon Mar 29 17:06:00 2021


Gurobi 9.1.1 (linux64) logging started Mon Mar 29 17:06:18 2021


Gurobi 9.1.1 (linux64) logging started Mon Mar 29 17:06:44 2021


Gurobi 9.1.1 (linux64) logging started Mon Mar 29 17:07:28 2021


Gurobi 9.1.1 (linux64) logging started Mon Mar 29 17:08:13 2021


Gurobi 9.1.1 (linux64) logging started Mon Mar 29 17:08:26 2021


Gurobi 9.1.1 (linux64) logging started Mon Mar 29 17:09:28 2021


Gurobi 9.1.1 (linux64) logging started Mon Mar 29 17:11:22 2021


Gurobi 9.1.1 (linux64) logging started Mon Mar 29 17:11:27 2021


Gurobi 9.1.1 (linux64) logging started Mon Mar 29 17:15:21 2021


Gurobi 9.1.1 (linux64) logging started Mon Mar 29 17:22:29 2021


Gurobi 9.1.1 (linux64) logging started Mon Mar 29 17:24:56 2021


Gurobi 9.1.1 (linux64) logging started Mon Mar 29 17:25:57 2021


Gurobi 9.1.1 (linux64) logging started Mon Mar 29 17:26:30 2021


Gurobi 9.1.1 (linux64) logging started Mon Mar 29 17:27:06 2021


Gurobi 9.1.1 (linux64) logging started Mon Mar 29 17:27:21 2021


Gurobi 9.1.1 (linux64) logging started Mon Mar 29 17:28:14 2021


Gurobi 9.1.1 (linux64) logging started Mon Mar 29 17:28:40 2021


Gurobi 9.1.1 (linux64) logging started Mon Mar 29 17:31:17 2021

Gurobi Optimizer version 9.1.1 build v9.1.1rc0 (linux64)
Thread count: 4 physical cores, 4 logical processors, using up to 4 threads
Optimize a model with 42427 rows, 44800 columns and 282800 nonzeros
Model fingerprint: 0x865a49f8
Variable types: 0 continuous, 44800 integer (44800 binary)
Coefficient statistics:
  Matrix range     [1e+00, 1e+00]
  Objective range  [1e+00, 3e+02]
  Bounds range     [1e+00, 1e+00]
  RHS range        [1e+00, 5e+00]
Presolve removed 10602 rows and 11900 columns
Presolve time: 0.04s

Explored 0 nodes (0 simplex iterations) in 0.08 seconds
Thread count was 1 (of 4 available processors)

Solution count 0

Model is infeasible
Best objective -, best bound -, gap -

Gurobi 9.1.1 (linux64) logging started Mon Mar 29 17:39:51 2021

Gurobi Optimizer version 9.1.1 build v9.1.1rc0 (linux64)
Thread count: 4 physical cores, 4 logical processors, using up to 4 threads
Optimize a model with 42427 rows, 44800 columns and 282800 nonzeros
Model fingerprint: 0x865a49f8
Variable types: 0 continuous, 44800 integer (44800 binary)
Coefficient statistics:
  Matrix range     [1e+00, 1e+00]
  Objective range  [1e+00, 3e+02]
  Bounds range     [1e+00, 1e+00]
  RHS range        [1e+00, 5e+00]
Presolve removed 10602 rows and 11900 columns
Presolve time: 0.04s

Explored 0 nodes (0 simplex iterations) in 0.07 seconds
Thread count was 1 (of 4 available processors)

Solution count 0

Model is infeasible
Best objective -, best bound -, gap -

Gurobi 9.1.1 (linux64) logging started Mon Mar 29 17:40:49 2021

Gurobi Optimizer version 9.1.1 build v9.1.1rc0 (linux64)
Thread count: 4 physical cores, 4 logical processors, using up to 4 threads
Optimize a model with 49601 rows, 51100 columns and 358000 nonzeros
Model fingerprint: 0x0c7356cc
Variable types: 0 continuous, 51100 integer (51100 binary)
Coefficient statistics:
  Matrix range     [1e+00, 1e+00]
  Objective range  [1e+00, 3e+02]
  Bounds range     [1e+00, 1e+00]
  RHS range        [1e+00, 5e+00]
Presolve removed 5602 rows and 6000 columns
Presolve time: 0.04s

Explored 0 nodes (0 simplex iterations) in 0.08 seconds
Thread count was 1 (of 4 available processors)

Solution count 0

Model is infeasible
Best objective -, best bound -, gap -

Gurobi 9.1.1 (linux64) logging started Mon Mar 29 17:40:55 2021

Gurobi Optimizer version 9.1.1 build v9.1.1rc0 (linux64)
Thread count: 4 physical cores, 4 logical processors, using up to 4 threads
Optimize a model with 5354 rows, 5400 columns and 10600 nonzeros
Model fingerprint: 0x08101bfe
Variable types: 0 continuous, 5400 integer (5400 binary)
Coefficient statistics:
  Matrix range     [1e+00, 1e+00]
  Objective range  [1e+00, 3e+02]
  Bounds range     [1e+00, 1e+00]
  RHS range        [1e+00, 5e+00]
Presolve removed 5301 rows and 5400 columns
Presolve time: 0.00s

Explored 0 nodes (0 simplex iterations) in 0.00 seconds
Thread count was 1 (of 4 available processors)

Solution count 0

Model is infeasible
Best objective -, best bound -, gap -

Gurobi 9.1.1 (linux64) logging started Mon Mar 29 17:41:02 2021

Gurobi Optimizer version 9.1.1 build v9.1.1rc0 (linux64)
Thread count: 4 physical cores, 4 logical processors, using up to 4 threads
Optimize a model with 9092 rows, 9400 columns and 18000 nonzeros
Model fingerprint: 0x9b53f559
Variable types: 0 continuous, 9400 integer (9400 binary)
Coefficient statistics:
  Matrix range     [1e+00, 1e+00]
  Objective range  [1e+00, 3e+02]
  Bounds range     [1e+00, 1e+00]
  RHS range        [1e+00, 5e+00]
Presolve removed 9002 rows and 9400 columns
Presolve time: 0.00s

Explored 0 nodes (0 simplex iterations) in 0.01 seconds
Thread count was 1 (of 4 available processors)

Solution count 0

Model is infeasible
Best objective -, best bound -, gap -

Gurobi 9.1.1 (linux64) logging started Mon Mar 29 17:41:07 2021

Gurobi Optimizer version 9.1.1 build v9.1.1rc0 (linux64)
Thread count: 4 physical cores, 4 logical processors, using up to 4 threads
Optimize a model with 12629 rows, 13300 columns and 57000 nonzeros
Model fingerprint: 0x245fae76
Variable types: 0 continuous, 13300 integer (13300 binary)
Coefficient statistics:
  Matrix range     [1e+00, 1e+00]
  Objective range  [1e+00, 3e+02]
  Bounds range     [1e+00, 1e+00]
  RHS range        [1e+00, 5e+00]
Presolve removed 4302 rows and 4700 columns
Presolve time: 0.01s

Explored 0 nodes (0 simplex iterations) in 0.01 seconds
Thread count was 1 (of 4 available processors)

Solution count 0

Model is infeasible
Best objective -, best bound -, gap -

Gurobi 9.1.1 (linux64) logging started Mon Mar 29 17:54:32 2021

Gurobi Optimizer version 9.1.1 build v9.1.1rc0 (linux64)
Thread count: 4 physical cores, 4 logical processors, using up to 4 threads
Optimize a model with 75 rows, 90 columns and 190 nonzeros
Model fingerprint: 0x39eff1f2
Variable types: 0 continuous, 90 integer (90 binary)
Coefficient statistics:
  Matrix range     [1e+00, 1e+00]
  Objective range  [1e+00, 6e+08]
  Bounds range     [1e+00, 1e+00]
  RHS range        [1e+00, 2e+00]
Presolve removed 32 rows and 50 columns
Presolve time: 0.00s

Explored 0 nodes (0 simplex iterations) in 0.00 seconds
Thread count was 1 (of 4 available processors)

Solution count 0

Model is infeasible
Best objective -, best bound -, gap -

Gurobi 9.1.1 (linux64) logging started Mon Mar 29 17:54:50 2021

Gurobi Optimizer version 9.1.1 build v9.1.1rc0 (linux64)
Thread count: 4 physical cores, 4 logical processors, using up to 4 threads
Optimize a model with 42427 rows, 44800 columns and 282800 nonzeros
Model fingerprint: 0x865a49f8
Variable types: 0 continuous, 44800 integer (44800 binary)
Coefficient statistics:
  Matrix range     [1e+00, 1e+00]
  Objective range  [1e+00, 3e+02]
  Bounds range     [1e+00, 1e+00]
  RHS range        [1e+00, 5e+00]
Presolve removed 10602 rows and 11900 columns
Presolve time: 0.03s

Explored 0 nodes (0 simplex iterations) in 0.06 seconds
Thread count was 1 (of 4 available processors)

Solution count 0

Model is infeasible
Best objective -, best bound -, gap -

Gurobi 9.1.1 (linux64) logging started Mon Mar 29 17:56:12 2021

Gurobi Optimizer version 9.1.1 build v9.1.1rc0 (linux64)
Thread count: 4 physical cores, 4 logical processors, using up to 4 threads

Warning: excessive time spent in model updates.
Consider calling update less frequently.

Optimize a model with 0 rows, 44800 columns and 0 nonzeros
Model fingerprint: 0xadee8eb6
Variable types: 0 continuous, 44800 integer (44800 binary)
Coefficient statistics:
  Matrix range     [0e+00, 0e+00]
  Objective range  [1e+00, 3e+02]
  Bounds range     [1e+00, 1e+00]
  RHS range        [0e+00, 0e+00]
Found heuristic solution: objective 0.0000000

Explored 0 nodes (0 simplex iterations) in 0.03 seconds
Thread count was 1 (of 4 available processors)

Solution count 1: 0 

Optimal solution found (tolerance 1.00e-04)
Best objective 0.000000000000e+00, best bound 0.000000000000e+00, gap 0.0000%

Gurobi 9.1.1 (linux64) logging started Mon Mar 29 18:00:07 2021

Gurobi Optimizer version 9.1.1 build v9.1.1rc0 (linux64)
Thread count: 4 physical cores, 4 logical processors, using up to 4 threads
Optimize a model with 42427 rows, 44800 columns and 282800 nonzeros
Model fingerprint: 0x865a49f8
Variable types: 0 continuous, 44800 integer (44800 binary)
Coefficient statistics:
  Matrix range     [1e+00, 1e+00]
  Objective range  [1e+00, 3e+02]
  Bounds range     [1e+00, 1e+00]
  RHS range        [1e+00, 5e+00]
Presolve removed 10602 rows and 11900 columns
Presolve time: 0.03s

Explored 0 nodes (0 simplex iterations) in 0.07 seconds
Thread count was 1 (of 4 available processors)

Solution count 0

Model is infeasible
Best objective -, best bound -, gap -

Gurobi 9.1.1 (linux64) logging started Mon Mar 29 18:00:51 2021

Gurobi Optimizer version 9.1.1 build v9.1.1rc0 (linux64)
Thread count: 4 physical cores, 4 logical processors, using up to 4 threads

Warning: excessive time spent in model updates.
Consider calling update less frequently.

Optimize a model with 420 rows, 44800 columns and 42000 nonzeros
Model fingerprint: 0x149c535a
Variable types: 0 continuous, 44800 integer (44800 binary)
Coefficient statistics:
  Matrix range     [1e+00, 1e+00]
  Objective range  [1e+00, 3e+02]
  Bounds range     [1e+00, 1e+00]
  RHS range        [1e+00, 1e+00]
Found heuristic solution: objective 52586.000000
Presolve removed 420 rows and 44800 columns
Presolve time: 0.02s
Presolve: All rows and columns removed

Explored 0 nodes (0 simplex iterations) in 0.02 seconds
Thread count was 1 (of 4 available processors)

Solution count 2: 0 

Optimal solution found (tolerance 1.00e-04)
Best objective 0.000000000000e+00, best bound 0.000000000000e+00, gap 0.0000%

Gurobi 9.1.1 (linux64) logging started Mon Mar 29 18:01:22 2021

Gurobi Optimizer version 9.1.1 build v9.1.1rc0 (linux64)
Thread count: 4 physical cores, 4 logical processors, using up to 4 threads

Warning: excessive time spent in model updates.
Consider calling update less frequently.

Optimize a model with 427 rows, 44800 columns and 44900 nonzeros
Model fingerprint: 0x00516100
Variable types: 0 continuous, 44800 integer (44800 binary)
Coefficient statistics:
  Matrix range     [1e+00, 1e+00]
  Objective range  [1e+00, 3e+02]
  Bounds range     [1e+00, 1e+00]
  RHS range        [1e+00, 5e+00]
Found heuristic solution: objective 52586.000000
Presolve removed 427 rows and 44800 columns
Presolve time: 0.01s
Presolve: All rows and columns removed

Explored 0 nodes (0 simplex iterations) in 0.02 seconds
Thread count was 1 (of 4 available processors)

Solution count 2: 0 

Optimal solution found (tolerance 1.00e-04)
Best objective 0.000000000000e+00, best bound 0.000000000000e+00, gap 0.0000%

Gurobi 9.1.1 (linux64) logging started Mon Mar 29 18:04:29 2021

Gurobi Optimizer version 9.1.1 build v9.1.1rc0 (linux64)
Thread count: 4 physical cores, 4 logical processors, using up to 4 threads
Optimize a model with 42427 rows, 44800 columns and 282800 nonzeros
Model fingerprint: 0x865a49f8
Variable types: 0 continuous, 44800 integer (44800 binary)
Coefficient statistics:
  Matrix range     [1e+00, 1e+00]
  Objective range  [1e+00, 3e+02]
  Bounds range     [1e+00, 1e+00]
  RHS range        [1e+00, 5e+00]
Presolve removed 10602 rows and 11900 columns
Presolve time: 0.03s

Explored 0 nodes (0 simplex iterations) in 0.06 seconds
Thread count was 1 (of 4 available processors)

Solution count 0

Model is infeasible
Best objective -, best bound -, gap -
